! B3LYP D3BJ def2-SVP TightSCF EnGrad

%pal
  nprocs 10
end

%maxcore 1500

* xyz 0 1
C  -2.29350475  0.02101784  0.49117174
O  -0.98045546  0.49077953  0.69866408
C  -0.13717602 -0.01415468 -0.31356662
C   1.27249973  0.52855833 -0.09191160
C   2.16344862 -0.26888631  0.78019485
O   2.25451561 -0.32711347 -0.62613693
H  -2.94540027  0.42980452  1.29026771
H  -2.33926074 -1.08901713  0.55545538
H  -2.69822724  0.37141862 -0.48450175
H  -0.13175563 -1.12982411 -0.30496586
H  -0.47462999  0.33448612 -1.31575294
H   1.51346429  1.60099721 -0.24891457
H   3.02991635  0.26997874  1.21647640
H   1.76656550 -1.21804519  1.19857325
C  -1.91412029  2.23969633 -0.77650645
N  -0.51063691  2.10239064 -0.41358781
H  -2.37715172  1.23416341 -0.86397627
H  -2.44899125  2.81182586  0.01072082
H  -2.01140141  2.77339272 -1.74710659
H  -0.02916797  1.59427395 -1.19045174
H  -0.09598491  3.06167614 -0.37688270
*
