! B3LYP def2-SVP D3BJ TightSCF Opt

%pal
  nprocs 1
end

%maxcore 1000

* xyz 0 1
C   0.000000   0.000000   0.000000
N   1.450000   0.000000   0.000000
H  -0.360000   1.020000   0.000000
H  -0.360000  -0.510000   0.883000
H  -0.360000  -0.510000  -0.883000
H   1.800000   0.480000   0.820000
H   1.800000   0.480000  -0.820000
*
