! B3LYP def2-SVP TightSCF Opt

%pal
  nprocs 1
end

%maxcore 1000

* xyz 0 1
O   0.000000   0.000000   0.000000
H   0.000000   0.757000   0.586000
H   0.000000  -0.757000   0.586000
*
